words_hard_train/9930.qaiger
aag 40 11 0 1 29
2
4
8
12
20
22
26
42
44
52
54
81
6 2 5
10 8 5
14 11 12
16 9 4
18 15 17
24 21 23
28 25 27
30 18 29
32 7 31
34 16 12
36 3 4
38 35 37
40 32 38
46 42 44
48 20 22
50 46 48
56 52 54
58 50 56
60 59 26
62 40 61
64 43 53
66 49 55
68 64 66
70 10 13
72 71 25
74 68 73
76 74 45
78 77 27
80 62 79
i0 1 x2[5]
i1 2 y1[0]
i2 1 x2[6]
i3 2 y1[1]
i4 1 x2[7]
i5 2 y1[2]
i6 2 y1[7]
i7 2 y1[3]
i8 2 y1[6]
i9 2 y1[4]
i10 2 y1[5]
o0 bool[0]
c
simplified
  !=
    xor
      subtract
        2 y1
        1
      >> 5
        1 x2
    1
