words_hard_train/9930.qaiger.qdimacs
p cnf 40 88
a 1 10 4 0
e 2 3 5 6 7 8 9 11 12 13 14 15 16 17 18 19 20 21 22 23 24 25 26 27 28 29 30 31 32 33 34 35 36 37 38 39 40 0
-1 2 3 0
1 -3 0
-2 -3 0
-4 2 5 0
4 -5 0
-2 -5 0
5 -6 7 0
-5 -7 0
6 -7 0
4 -2 8 0
-4 -8 0
2 -8 0
7 8 9 0
-7 -9 0
-8 -9 0
10 11 12 0
-10 -12 0
-11 -12 0
12 13 14 0
-12 -14 0
-13 -14 0
-9 14 15 0
9 -15 0
-14 -15 0
3 15 16 0
-3 -16 0
-15 -16 0
-8 -6 17 0
8 -17 0
6 -17 0
1 -2 18 0
-1 -18 0
2 -18 0
17 18 19 0
-17 -19 0
-18 -19 0
-16 -19 20 0
16 -20 0
19 -20 0
-21 -22 23 0
21 -23 0
22 -23 0
-10 -11 24 0
10 -24 0
11 -24 0
-23 -24 25 0
23 -25 0
24 -25 0
-26 -27 28 0
26 -28 0
27 -28 0
-25 -28 29 0
25 -29 0
28 -29 0
29 -13 30 0
-29 -30 0
13 -30 0
-20 30 31 0
20 -31 0
-30 -31 0
21 26 32 0
-21 -32 0
-26 -32 0
24 27 33 0
-24 -33 0
-27 -33 0
-32 -33 34 0
32 -34 0
33 -34 0
-5 6 35 0
5 -35 0
-6 -35 0
35 12 36 0
-35 -36 0
-12 -36 0
-34 36 37 0
34 -37 0
-36 -37 0
-37 22 38 0
37 -38 0
-22 -38 0
38 13 39 0
-38 -39 0
-13 -39 0
-31 39 40 0
31 -40 0
-39 -40 0
-40 0
